NAME : results4.329927.tour
COMMENT : Length = 329927
COMMENT : Found by LKH [Keld Helsgaun] Tue Dec 11 20:29:18 2018
TYPE : TOUR
DIMENSION : 69
TOUR_SECTION
1
39
66
40
20
56
19
13
53
14
42
67
41
11
52
12
33
63
34
35
64
36
37
65
38
8
50
7
10
51
9
21
57
22
23
58
24
25
59
26
27
60
28
29
61
30
32
62
31
15
54
16
17
55
18
46
69
45
44
68
43
6
49
5
4
48
3
2
47
-1
EOF
